10
0 11 17 4 3 2 19 10 8 3
5 0 9 15 12 4 1 5 20 13
2 6 0 6 9 14 16 1 3 10
17 13 5 0 8 1 5 18 5 8
20 17 12 5 0 9 7 10 2 4
15 1 13 5 9 0 18 3 14 9
7 5 18 11 16 20 0 3 2 10
10 1 8 17 18 3 6 0 6 14
3 20 16 13 10 8 9 4 0 2
13 9 2 19 11 6 16 1 4 0